
  12   12
  10   10   10   10   10   10   10   10   10   10   10   10

   0   0   0   0   0   0   0   0   0   0   0   0   0   5 2 3 4 5 7 
   3   0   0   0   0   0   0   1   0   1   0   0   0   3 11 10 8 
   1   0   0   0   0   1   1   3   1   0   0   0   1   3 10 9 8 
   6   0   0   0   0   0   0   0   0   0   0   0   0   2 8 6 
   1   0   0   0   1   6   0   8   5   6   1   0   0   2 10 8 
   4   0   1   0   0   2   0   0   0   0  10   0   0   1 9 
   3   0   9   0   7   9   0   0   0   5   0   1   0   1 9 
   5   0   0   0   0   0   0   9   0   0   0   0   9   1 12
   6   0   0   0   8   5   0   4   9   0   0   0   0   1 12
   2   0   0   0   4   0   0   0   0   0   4   4   0   1 12
   5   5   0   0   0   7   9   0   0   8   0  10   0   1 12
   0   0   0   0   0   0   0   0   0   0   0   0   0   0 
